webassembly/ejemplos_dzn/14/folder14_json_62.dzn
TERM = { '.', 's(5)', 's(2)', 's(4)', 'local_0', 'local_1', 's(8)', 's(6)', 's(1)', 's(0)', 's(7)', 's(3)'};
null = '.';
s = 14;
n = 9;
ndeps = 0;
max_registers_sz = 5;
NR = 2;
registers = [|'local_0', 's(3)', |'local_1', 's(5)'|];
dependencies = [| |];
GET_ENUM = { GET1, GET2, GET3, GET4, GET5, GET6, GET7};
SET_ENUM = { SET1, SET2, SET3, SET4, SET5, SET6, SET7};
TEE_ENUM = { TEE1, TEE2, TEE3, TEE4, TEE5, TEE6, TEE7};
N = 9;
OP = { 'i32.const_0', 'i32.load8_u_1', 'i32.load8_u_3', 'i32.const_1', 'i32.load8_s_6', 'i32.const_2', 'i32.add_0', 'i32.load16_s_10', 'i32.load16_s_12' };
in_ops = [0, 1, 1, 0, 1, 0, 2, 1, 1 ];
out_ops = [1, 1, 1, 1, 1, 1, 1, 1, 1 ];
in1 = ['.', 's(6)', 's(0)', '.', 's(7)', '.', 's(8)', 's(3)', 'local_1' ];
in2 = ['.', '.', '.', '.', '.', '.', 's(2)', '.', '.' ];
in3 = ['.', '.', '.', '.', '.', '.', '.', '.', '.' ];
out1 = ['s(6)', 's(0)', 's(1)', 's(7)', 's(2)', 's(8)', 's(3)', 's(4)', 's(5)' ];
out2 = ['.', '.', '.', '.', '.', '.', '.', '.', '.' ];
out3 = ['.', '.', '.', '.', '.', '.', '.', '.', '.' ];
comm = [false, false, false, false, false, false, true, false, false ];
gas = [1, 1, 1, 1, 1, 1, 1, 1, 1 ];
sz = [1, 1, 1, 1, 1, 1, 1, 1, 1 ];
stor = [false, false, false, false, false, false, false, false, false ];
lb = [ 1, 1, 1, 1, 1, 1, 1, 1, 1 ];
ub = [ 14, 14, 14, 14, 14, 14, 14, 14, 14 ];
startstack = [ null, null, null, null, null, null, null, null, null ];
endstack = [ 's(5)', 's(1)', null, null, null, null, null, null, null ];
